146
100000
45772
13463
47042
25556
74457
23319
337
984
51721
42907
3397
3917
34338
23366
29639
39941
30177
26058
36942
52186
62681
476
9820
18190
34640
71779
17587
7048
51230
53051
47501
47329
41659
41339
11119
37629
22812
39710
56699
56258
35053
11772
7627
27875
30786
40540
55355
26152
24180
17014
2641
39789
41080
32996
12856
16167
39229
23230
21720
49327
38559
3101
29650
21373
15723
33643
51951
4874
19532
56441
62371
4457
56287
27655
43742
9499
9815
60211
55173
51433
891
17223
7370
51636
2291
47691
33323
17457
68812
10079
43559
43127
72602
2772
36674
17212
38268
34214
16464
1205
33904
19585
45877
17
39627
73862
36981
3400
53813
3146
42173
37184
44017
19248
55983
20028
24676
6033
6300
49666
68782
616
50673
50709
15825
19324
53541
43284
3339
31056
14992
72345
1485
28660
13417
60373
43276
40370
46949
14006
15704
27330
4882
1523
44132
10062
